Resources = {R1, R2, R3, R4, R5, R6, R7, R8, R9, R10, R11, R12, R13, R14};

Activities = {T, S, W, o, b};

slots = 120;

fixed =
[| R1: None, None, None, None, None, None, None, None, None, None, None, None, None, None, None, <>, <>, <>, <>, <>, <>, <>, <>, <>, <>, <>, <>, <>, <>, <>, <>, <>, <>, <>, <>, <>, <>, <>, <>, A(b), <>, <>, <>, <>, <>, <>, <>, <>, <>, <>, <>, <>, <>, <>, <>, <>, <>, <>, <>, <>, <>, <>, <>, A(b), A(b), A(b), A(b), A(b), A(b), A(b), A(b), A(b), A(b), A(b), A(b), <>, <>, <>, <>, <>, <>, <>, <>, <>, <>, <>, <>, <>, <>, <>, <>, <>, <>, <>, <>, <>, <>, <>, <>, <>, <>, <>, <>, <>, <>, <>, <>, None, None, None, None, None, None, None, None, None, None, None, None, None
| R2: None, None, None, None, None, None, None, None, None, None, None, None, None, None, None, None, None, None, None, None, None, None, None, None, None, A(o), A(o), A(o), A(o), A(o), A(o), A(o), A(o), A(o), A(o), <>, <>, <>, <>, <>, <>, <>, <>, <>, <>, <>, <>, <>, <>, A(b), A(o), A(o), A(o), A(o), A(o), A(o), A(o), A(o), A(o), A(o), A(o), A(o), A(o), A(o), A(o), A(o), <>, <>, <>, <>, <>, <>, <>, A(b), A(b), A(b), A(b), A(b), A(b), A(b), A(b), A(b), A(o), A(o), A(o), A(o), A(o), A(o), A(o), A(o), A(o), A(o), A(o), A(o), A(o), A(o), <>, <>, <>, <>, <>, <>, <>, <>, <>, <>, <>, None, None, None, None, None, None, None, None, None, None, None, None, None
| R3: <>, <>, <>, <>, <>, <>, <>, <>, <>, <>, A(o), <>, <>, <>, <>, <>, <>, <>, <>, <>, <>, <>, <>, <>, A(b), <>, <>, <>, <>, <>, <>, <>, <>, <>, <>, <>, <>, <>, <>, <>, <>, <>, <>, <>, <>, <>, <>, <>, A(b), A(b), A(b), A(b), A(b), A(b), A(b), <>, <>, <>, <>, <>, <>, <>, <>, <>, <>, <>, <>, <>, <>, <>, <>, <>, A(b), <>, <>, <>, <>, <>, <>, <>, <>, <>, <>, <>, <>, <>, <>, <>, <>, <>, <>, <>, <>, <>, <>, <>, <>, <>, <>, <>, <>, <>, <>, <>, <>, <>, <>, <>, <>, <>, <>, <>, <>, <>, <>, <>, <>, <>, <>, <>
| R4: None, None, None, None, None, None, None, None, None, <>, A(o), <>, <>, <>, <>, <>, <>, <>, <>, <>, <>, <>, <>, <>, <>, <>, <>, <>, <>, <>, <>, <>, <>, A(b), <>, <>, <>, <>, <>, <>, <>, <>, <>, <>, <>, <>, <>, <>, <>, <>, <>, <>, <>, <>, <>, <>, <>, A(b), A(b), A(b), A(b), A(b), A(b), A(b), A(b), A(b), A(b), <>, <>, <>, <>, <>, <>, <>, <>, <>, <>, <>, <>, <>, <>, <>, <>, <>, <>, <>, <>, <>, <>, <>, <>, <>, <>, <>, <>, <>, <>, <>, <>, <>, <>, <>, <>, <>, <>, <>, <>, None, None, None, None, None, None, None, None, None, None, None, None, None
| R5: None, None, None, None, <>, <>, <>, <>, <>, <>, A(o), <>, <>, <>, <>, <>, <>, <>, <>, <>, <>, <>, <>, <>, <>, <>, <>, <>, A(b), A(o), A(o), A(o), A(o), A(o), <>, <>, <>, <>, <>, <>, <>, <>, <>, <>, <>, <>, <>, <>, <>, <>, <>, <>, A(b), A(b), A(b), A(b), A(b), A(b), A(b), A(b), A(b), A(b), <>, <>, <>, <>, <>, <>, <>, <>, <>, <>, <>, <>, <>, <>, <>, <>, <>, <>, <>, <>, <>, <>, <>, <>, <>, <>, <>, <>, <>, <>, <>, <>, <>, <>, <>, <>, <>, <>, <>, <>, <>, <>, <>, <>, <>, <>, <>, <>, None, None, None, None, None, None, None, None, None, None
| R6: None, None, None, None, None, None, None, None, None, A(o), A(o), <>, <>, <>, <>, <>, <>, <>, <>, <>, <>, <>, <>, <>, <>, <>, <>, <>, <>, <>, <>, <>, <>, A(b), <>, <>, <>, <>, <>, <>, <>, <>, <>, <>, <>, <>, <>, <>, <>, <>, <>, <>, <>, <>, <>, <>, <>, A(b), A(b), A(b), A(b), A(b), A(b), <>, <>, <>, <>, <>, <>, <>, <>, <>, <>, <>, <>, <>, <>, <>, <>, <>, <>, <>, <>, <>, <>, <>, <>, <>, <>, <>, <>, <>, <>, <>, <>, <>, <>, <>, <>, <>, <>, <>, <>, <>, <>, <>, <>, <>, <>, <>, None, None, None, None, None, None, None, None, None, None
| R7: None, <>, <>, <>, <>, <>, <>, <>, <>, <>, A(o), <>, <>, <>, <>, <>, <>, <>, <>, <>, <>, <>, <>, <>, <>, A(b), <>, <>, <>, <>, <>, <>, <>, <>, <>, <>, <>, <>, <>, <>, <>, <>, <>, <>, <>, <>, <>, <>, <>, A(b), A(b), A(b), A(b), A(b), A(b), A(b), A(b), A(b), A(b), A(b), A(b), <>, <>, <>, <>, <>, <>, <>, <>, <>, <>, <>, <>, <>, <>, <>, <>, <>, <>, <>, <>, <>, <>, <>, <>, <>, <>, <>, <>, <>, <>, <>, <>, <>, <>, <>, <>, <>, None, None, None, None, None, None, None, None, None, None, None, None, None, None, None, None, None, None, None, None, None, None
| R8: None, None, None, None, None, None, None, None, <>, <>, A(o), <>, <>, <>, <>, <>, <>, <>, <>, <>, <>, <>, <>, <>, <>, <>, <>, <>, <>, <>, <>, <>, A(b), A(o), <>, <>, <>, <>, <>, <>, <>, <>, <>, <>, <>, <>, <>, <>, <>, <>, <>, <>, <>, <>, <>, <>, A(b), A(b), A(b), A(b), A(b), A(b), <>, <>, <>, <>, <>, <>, <>, <>, <>, <>, <>, <>, <>, <>, <>, <>, <>, <>, <>, <>, <>, <>, <>, <>, <>, <>, <>, <>, <>, <>, <>, <>, <>, <>, <>, <>, <>, <>, <>, <>, <>, <>, <>, <>, <>, <>, <>, <>, <>, <>, <>, <>, <>, <>, <>, <>, <>, None
| R9: None, A(o), <>, <>, <>, <>, <>, <>, <>, <>, A(o), <>, <>, <>, <>, <>, <>, <>, <>, <>, <>, <>, <>, <>, <>, A(b), A(o), A(o), A(o), A(o), A(o), <>, <>, <>, <>, <>, <>, <>, <>, <>, <>, <>, <>, <>, <>, <>, <>, <>, <>, A(b), A(b), A(b), A(b), A(b), A(b), A(b), A(b), A(b), A(b), <>, <>, <>, <>, <>, <>, <>, <>, <>, <>, <>, <>, <>, <>, <>, <>, <>, <>, <>, <>, <>, <>, <>, <>, <>, <>, <>, <>, <>, <>, <>, <>, <>, <>, <>, <>, <>, <>, <>, <>, <>, <>, <>, <>, <>, <>, <>, <>, <>, <>, <>, <>, <>, <>, <>, <>, <>, <>, A(o), A(o), A(o)
| R10: None, None, None, None, None, None, None, None, A(o), A(o), A(o), <>, <>, <>, <>, <>, <>, <>, <>, <>, <>, <>, <>, <>, <>, <>, <>, <>, <>, <>, <>, <>, A(b), A(o), A(o), A(o), A(o), A(o), <>, <>, <>, <>, <>, <>, <>, <>, <>, <>, <>, <>, <>, <>, <>, <>, <>, <>, A(b), A(b), A(b), A(b), A(b), A(b), A(b), A(b), A(b), A(b), A(b), A(o), <>, <>, <>, <>, <>, <>, <>, <>, <>, <>, <>, <>, <>, <>, <>, <>, <>, <>, <>, <>, <>, <>, <>, <>, <>, <>, <>, <>, <>, <>, <>, <>, <>, <>, <>, <>, <>, <>, <>, A(o), A(o), A(o), A(o), A(o), A(o), A(o), A(o), A(o), A(o), A(o), None, None
| R11: None, None, A(o), A(o), A(o), A(o), A(o), A(o), A(o), A(o), A(o), <>, <>, <>, <>, <>, <>, <>, <>, <>, <>, <>, <>, <>, <>, <>, <>, <>, <>, <>, <>, <>, <>, <>, <>, <>, <>, <>, A(b), A(b), A(b), A(b), A(b), A(b), A(b), <>, <>, <>, <>, <>, <>, <>, <>, <>, <>, <>, <>, <>, <>, <>, <>, <>, <>, <>, <>, <>, <>, <>, <>, <>, <>, None, None, None, None, None, None, None, None, None, None, None, None, None, None, None, None, None, None, None, None, None, None, None, None, None, None, None, None, None, None, None, None, None, None, None, None, None, None, None, None, None, None, None, None, None, None, None, None, None
| R12: None, None, None, None, None, None, None, None, None, None, None, None, None, None, None, None, None, None, None, None, None, None, None, None, None, None, <>, <>, <>, <>, <>, <>, <>, <>, <>, <>, <>, <>, <>, <>, <>, <>, <>, <>, <>, <>, <>, <>, <>, <>, <>, <>, <>, <>, <>, <>, <>, <>, <>, <>, <>, <>, A(b), A(b), A(b), A(b), A(b), A(b), A(b), A(b), A(b), A(b), A(b), <>, <>, A(o), A(o), A(o), A(o), A(o), A(o), A(o), A(o), A(o), A(o), A(o), A(o), A(o), A(o), A(o), A(o), A(o), A(o), A(o), A(o), A(o), A(o), A(o), None, None, None, None, None, None, None, None, None, None, None, None, None, None, None, None, None, None, None, None, None, None
| R13: None, None, None, None, None, None, None, None, None, None, None, None, None, None, None, None, None, None, None, A(o), A(o), A(o), A(o), A(o), A(o), A(o), A(o), A(o), A(o), A(o), A(o), A(o), A(o), A(o), A(o), A(o), A(o), A(o), A(o), A(o), A(o), A(o), A(o), A(o), A(o), A(o), A(o), A(o), A(o), A(o), A(o), A(o), A(o), A(o), A(o), A(o), A(o), A(o), A(o), A(o), A(o), A(o), A(o), A(o), A(o), A(o), A(o), A(b), A(b), A(b), A(b), A(b), A(b), A(b), A(b), A(b), A(b), A(b), A(o), A(o), A(o), A(o), A(o), A(o), A(o), A(o), A(o), A(o), A(o), A(o), A(o), A(o), A(o), A(o), A(o), A(o), A(o), A(o), A(o), A(o), A(o), A(o), A(o), A(o), A(o), None, None, None, None, None, None, None, None, None, None, None, None, None, None, None
| R14: None, None, None, None, None, None, None, None, None, None, None, None, None, None, None, None, None, None, None, None, None, None, None, None, None, None, None, None, None, None, None, None, None, None, None, None, None, None, None, None, None, None, A(o), A(o), A(o), A(o), A(o), A(o), A(o), A(o), A(o), A(o), A(o), A(o), A(o), A(o), A(o), A(o), A(o), A(o), A(o), A(o), A(o), A(o), A(o), A(o), A(o), A(o), A(o), A(o), A(o), A(o), A(o), A(o), A(o), A(o), A(o), A(o), A(b), A(b), A(b), A(b), A(b), A(b), A(b), A(o), A(o), A(o), A(o), A(o), A(o), A(o), A(o), A(o), A(o), A(o), A(o), A(o), A(o), A(o), A(o), A(o), A(o), A(o), A(o), A(o), A(o), A(o), A(o), None, None, None, None, None, None, None, None, None, None, None
|];

requirements =
[| T: 0, 0, 0, 0, 0, 0, 0, 0, 0, 0, 0, 3, 3, 3, 3, 4, 4, 4, 4, 4, 4, 4, 4, 4, 3, 4, 4, 4, 3, 3, 3, 3, 3, 2, 4, 5, 5, 5, 5, 4, 5, 5, 5, 5, 5, 5, 5, 5, 4, 3, 3, 3, 2, 2, 2, 3, 3, 2, 2, 2, 2, 2, 3, 2, 2, 2, 2, 3, 3, 3, 3, 3, 2, 2, 2, 3, 3, 3, 3, 3, 3, 3, 3, 3, 3, 3, 3, 3, 3, 3, 3, 3, 3, 3, 3, 3, 4, 4, 4, 4, 4, 4, 4, 4, 4, 4, 4, 0, 0, 0, 0, 0, 0, 0, 0, 0, 0, 0, 0, 0
| S: 0, 0, 0, 0, 0, 0, 0, 0, 0, 0, 0, 3, 3, 3, 3, 3, 3, 3, 3, 3, 3, 3, 2, 2, 2, 1, 2, 2, 2, 2, 2, 2, 2, 1, 2, 2, 2, 2, 2, 2, 2, 2, 2, 2, 2, 2, 2, 2, 2, 1, 1, 1, 1, 1, 1, 1, 1, 1, 1, 1, 1, 1, 1, 2, 2, 2, 3, 3, 3, 3, 3, 3, 3, 3, 3, 3, 3, 3, 3, 3, 3, 3, 3, 3, 3, 3, 3, 3, 3, 3, 3, 3, 3, 3, 3, 3, 3, 3, 2, 2, 2, 2, 2, 2, 2, 2, 2, 0, 0, 0, 0, 0, 0, 0, 0, 0, 0, 0, 0, 0
| W: 1, 2, 3, 3, 4, 4, 4, 4, 5, 6, 0, 3, 3, 3, 3, 3, 3, 3, 3, 3, 3, 3, 4, 4, 4, 3, 4, 4, 4, 4, 4, 5, 3, 3, 4, 4, 4, 4, 4, 4, 4, 4, 4, 4, 4, 5, 5, 5, 5, 4, 4, 4, 4, 4, 4, 4, 2, 1, 1, 2, 2, 3, 3, 3, 3, 3, 3, 3, 4, 4, 4, 3, 3, 4, 4, 3, 3, 3, 3, 3, 3, 3, 3, 3, 3, 3, 3, 3, 3, 3, 3, 3, 3, 3, 3, 3, 3, 3, 3, 3, 3, 3, 3, 3, 3, 3, 3, 5, 5, 5, 3, 3, 3, 3, 3, 3, 3, 2, 2, 1
| o: 0, 1, 1, 1, 1, 1, 1, 1, 2, 3, 9, 0, 0, 0, 0, 0, 0, 0, 0, 1, 1, 1, 1, 1, 1, 2, 3, 3, 3, 4, 4, 3, 3, 5, 3, 2, 2, 2, 1, 1, 1, 1, 2, 2, 2, 2, 2, 2, 2, 2, 3, 3, 3, 3, 3, 3, 3, 3, 3, 3, 3, 3, 3, 3, 3, 3, 2, 2, 1, 1, 1, 1, 1, 1, 1, 2, 2, 2, 2, 2, 2, 2, 3, 3, 3, 4, 4, 4, 4, 4, 4, 4, 4, 4, 4, 4, 3, 3, 2, 2, 2, 2, 2, 2, 2, 1, 1, 2, 2, 1, 1, 1, 1, 1, 1, 1, 1, 2, 1, 1
| b: 0, 0, 0, 0, 0, 0, 0, 0, 0, 0, 0, 0, 0, 0, 0, 0, 0, 0, 0, 0, 0, 0, 0, 0, 1, 2, 0, 0, 1, 0, 0, 0, 2, 2, 0, 0, 0, 0, 1, 2, 1, 1, 1, 1, 1, 0, 0, 0, 1, 4, 3, 3, 4, 4, 4, 3, 5, 7, 7, 6, 6, 5, 4, 4, 4, 4, 4, 3, 3, 3, 3, 3, 4, 3, 3, 2, 2, 2, 2, 2, 2, 2, 1, 1, 1, 0, 0, 0, 0, 0, 0, 0, 0, 0, 0, 0, 0, 0, 0, 0, 0, 0, 0, 0, 0, 0, 0, 0, 0, 0, 0, 0, 0, 0, 0, 0, 0, 0, 0, 0
|];

activity_run_cost = array2d(Activities, SlotsAndZero,
[| T: 0, 800, 700, 600, 500, 400, 300, 200, 100, 4, 2, 0, 0, 0, 0, 0, 0, 0, 2, 4, 6, 100, 200, 300, 400, 500, 600, 700, 800, 900, 1000, 1100, 1200, 1300, 1400, 1500, 1600, 1700, 1800, 1900, 2000, 2100, 2200, 2300, 2400, 2500, 2600, 2700, 2800, 2900, 3000, 3100, 3200, 3300, 3400, 3500, 3600, 3700, 3800, 3900, 4000, 4000, 4000, 4000, 4000, 4000, 4000, 4000, 4000, 4000, 4000, 4000, 4000, 4000, 4000, 4000, 4000, 4000, 4000, 4000, 4000, 4000, 4000, 4000, 4000, 4000, 4000, 4000, 4000, 4000, 4000, 4000, 4000, 4000, 4000, 4000, 4000, 4000, 4000, 4000, 4000, 4000, 4000, 4000, 4000, 4000, 4000, 4000, 4000, 4000, 4000, 4000, 4000, 4000, 4000, 4000, 4000, 4000, 4000, 4000, 4000
| S: 0, 10, 8, 6, 4, 2, 0, 0, 0, 0, 0, 0, 0, 0, 0, 0, 0, 0, 0, 0, 0, 0, 0, 0, 0, 3, 6, 9, 12, 15, 18, 21, 24, 27, 30, 33, 36, 39, 42, 45, 48, 51, 54, 57, 60, 63, 66, 69, 72, 75, 78, 81, 84, 87, 90, 93, 96, 99, 102, 105, 108, 108, 108, 108, 108, 108, 108, 108, 108, 108, 108, 108, 108, 108, 108, 108, 108, 108, 108, 108, 108, 108, 108, 108, 108, 108, 108, 108, 108, 108, 108, 108, 108, 108, 108, 108, 108, 108, 108, 108, 108, 108, 108, 108, 108, 108, 108, 108, 108, 108, 108, 108, 108, 108, 108, 108, 108, 108, 108, 108, 108
| W: 0, 45, 40, 35, 30, 25, 20, 15, 10, 5, 0, 0, 0, 0, 0, 0, 0, 0, 0, 0, 0, 0, 0, 0, 0, 0, 0, 0, 0, 0, 0, 0, 0, 0, 0, 0, 0, 0, 0, 0, 0, 0, 0, 0, 0, 0, 0, 0, 0, 0, 0, 0, 0, 0, 0, 0, 0, 0, 0, 0, 0, 0, 0, 0, 0, 0, 0, 0, 0, 0, 0, 0, 0, 0, 0, 0, 0, 0, 0, 0, 0, 0, 0, 0, 0, 0, 0, 0, 0, 0, 0, 0, 0, 0, 0, 0, 0, 0, 0, 0, 0, 0, 0, 0, 0, 0, 0, 0, 0, 0, 0, 0, 0, 0, 0, 0, 0, 0, 0, 0, 0
| o: 0, 0, 0, 0, 0, 0, 0, 0, 0, 0, 0, 0, 0, 0, 0, 0, 0, 0, 0, 0, 0, 0, 0, 0, 0, 0, 0, 0, 0, 0, 0, 0, 0, 0, 0, 0, 0, 0, 0, 0, 0, 0, 0, 0, 0, 0, 0, 0, 0, 0, 0, 0, 0, 0, 0, 0, 0, 0, 0, 0, 0, 0, 0, 0, 0, 0, 0, 0, 0, 0, 0, 0, 0, 0, 0, 0, 0, 0, 0, 0, 0, 0, 0, 0, 0, 0, 0, 0, 0, 0, 0, 0, 0, 0, 0, 0, 0, 0, 0, 0, 0, 0, 0, 0, 0, 0, 0, 0, 0, 0, 0, 0, 0, 0, 0, 0, 0, 0, 0, 0, 0
| b: 0, 0, 0, 0, 0, 0, 0, 0, 0, 0, 0, 0, 0, 0, 0, 0, 0, 0, 0, 0, 0, 0, 0, 0, 0, 0, 0, 0, 0, 0, 0, 0, 0, 0, 0, 0, 0, 0, 0, 0, 0, 0, 0, 0, 0, 0, 0, 0, 0, 0, 0, 0, 0, 0, 0, 0, 0, 0, 0, 0, 0, 0, 0, 0, 0, 0, 0, 0, 0, 0, 0, 0, 0, 0, 0, 0, 0, 0, 0, 0, 0, 0, 0, 0, 0, 0, 0, 0, 0, 0, 0, 0, 0, 0, 0, 0, 0, 0, 0, 0, 0, 0, 0, 0, 0, 0, 0, 0, 0, 0, 0, 0, 0, 0, 0, 0, 0, 0, 0, 0, 0
|]);

activity_frequency_cost = array2d(Activities, SlotsAndZero,
[| T: 0, 48, 0, 0, 4, 6, 8, 10, 12, 14, 16, 18, 20, 22, 24, 26, 28, 30, 32, 34, 36, 38, 40, 42, 44, 46, 48, 50, 52, 54, 56, 58, 60, 62, 64, 66, 68, 70, 72, 74, 76, 78, 80, 82, 84, 86, 88, 90, 92, 94, 96, 98, 100, 102, 104, 106, 108, 110, 112, 114, 116, 116, 116, 116, 116, 116, 116, 116, 116, 116, 116, 116, 116, 116, 116, 116, 116, 116, 116, 116, 116, 116, 116, 116, 116, 116, 116, 116, 116, 116, 116, 116, 116, 116, 116, 116, 116, 116, 116, 116, 116, 116, 116, 116, 116, 116, 116, 116, 116, 116, 116, 116, 116, 116, 116, 116, 116, 116, 116, 116, 116
| S: 0, 0, 0, 0, 0, 0, 0, 0, 0, 0, 0, 0, 0, 0, 0, 0, 0, 0, 0, 0, 0, 0, 0, 0, 0, 0, 0, 0, 0, 0, 0, 0, 0, 0, 0, 0, 0, 0, 0, 0, 0, 0, 0, 0, 0, 0, 0, 0, 0, 0, 0, 0, 0, 0, 0, 0, 0, 0, 0, 0, 0, 0, 0, 0, 0, 0, 0, 0, 0, 0, 0, 0, 0, 0, 0, 0, 0, 0, 0, 0, 0, 0, 0, 0, 0, 0, 0, 0, 0, 0, 0, 0, 0, 0, 0, 0, 0, 0, 0, 0, 0, 0, 0, 0, 0, 0, 0, 0, 0, 0, 0, 0, 0, 0, 0, 0, 0, 0, 0, 0, 0
| W: 0, 1, 2, 3, 4, 5, 6, 7, 8, 9, 10, 11, 12, 13, 14, 15, 16, 17, 18, 19, 20, 21, 22, 23, 24, 25, 26, 27, 28, 29, 30, 31, 32, 33, 34, 35, 36, 37, 38, 39, 40, 41, 42, 43, 44, 45, 46, 47, 48, 49, 50, 51, 52, 53, 54, 55, 56, 57, 58, 59, 59, 59, 59, 59, 59, 59, 59, 59, 59, 59, 59, 59, 59, 59, 59, 59, 59, 59, 59, 59, 59, 59, 59, 59, 59, 59, 59, 59, 59, 59, 59, 59, 59, 59, 59, 59, 59, 59, 59, 59, 59, 59, 59, 59, 59, 59, 59, 59, 59, 59, 59, 59, 59, 59, 59, 59, 59, 59, 59, 59, 59
| o: 0, 0, 0, 0, 0, 0, 0, 0, 0, 0, 0, 0, 0, 0, 0, 0, 0, 0, 0, 0, 0, 0, 0, 0, 0, 0, 0, 0, 0, 0, 0, 0, 0, 0, 0, 0, 0, 0, 0, 0, 0, 0, 0, 0, 0, 0, 0, 0, 0, 0, 0, 0, 0, 0, 0, 0, 0, 0, 0, 0, 0, 0, 0, 0, 0, 0, 0, 0, 0, 0, 0, 0, 0, 0, 0, 0, 0, 0, 0, 0, 0, 0, 0, 0, 0, 0, 0, 0, 0, 0, 0, 0, 0, 0, 0, 0, 0, 0, 0, 0, 0, 0, 0, 0, 0, 0, 0, 0, 0, 0, 0, 0, 0, 0, 0, 0, 0, 0, 0, 0, 0
| b: 0, 0, 0, 0, 0, 0, 0, 0, 0, 0, 0, 0, 0, 0, 0, 0, 0, 0, 0, 0, 0, 0, 0, 0, 0, 0, 0, 0, 0, 0, 0, 0, 0, 0, 0, 0, 0, 0, 0, 0, 0, 0, 0, 0, 0, 0, 0, 0, 0, 0, 0, 0, 0, 0, 0, 0, 0, 0, 0, 0, 0, 0, 0, 0, 0, 0, 0, 0, 0, 0, 0, 0, 0, 0, 0, 0, 0, 0, 0, 0, 0, 0, 0, 0, 0, 0, 0, 0, 0, 0, 0, 0, 0, 0, 0, 0, 0, 0, 0, 0, 0, 0, 0, 0, 0, 0, 0, 0, 0, 0, 0, 0, 0, 0, 0, 0, 0, 0, 0, 0, 0
|]);

